(declare-fun e () String)
(declare-fun c () String)
(declare-fun g () String)
(declare-fun d () String)
(declare-fun f () String)
(declare-fun a () String)
(declare-fun h () String)
(assert (= (str.++ f e h "ha") d))
(assert (= (str.++ "e" c "ab") (str.++ g "b")))
(assert (= (str.++ g e "e") (str.++ h "g" a)))

(check-sat)
